p cnf 331 1124
c weights 1.0 1.0 2.718281828459045 0.36787944117144233 2.718281828459045 0.36787944117144233 2.718281828459045 0.36787944117144233 2.718281828459045 0.36787944117144233 2.718281828459045 0.36787944117144233 2.718281828459045 0.36787944117144233 2.718281828459045 0.36787944117144233 2.718281828459045 0.36787944117144233 2.718281828459045 0.36787944117144233 2.718281828459045 0.36787944117144233 2.718281828459045 0.36787944117144233 2.718281828459045 0.36787944117144233 2.718281828459045 0.36787944117144233 1.0 1.0 2.718281828459045 0.36787944117144233 2.718281828459045 0.36787944117144233 2.718281828459045 0.36787944117144233 2.718281828459045 0.36787944117144233 2.718281828459045 0.36787944117144233 2.718281828459045 0.36787944117144233 2.718281828459045 0.36787944117144233 2.718281828459045 0.36787944117144233 1.0 1.0 2.718281828459045 0.36787944117144233 2.718281828459045 0.36787944117144233 2.718281828459045 0.36787944117144233 2.718281828459045 0.36787944117144233 2.718281828459045 0.36787944117144233 2.718281828459045 0.36787944117144233 2.718281828459045 0.36787944117144233 2.718281828459045 0.36787944117144233 2.718281828459045 0.36787944117144233 2.718281828459045 0.36787944117144233 2.718281828459045 0.36787944117144233 2.718281828459045 0.36787944117144233 2.718281828459045 0.36787944117144233 1.0 1.0 2.718281828459045 0.36787944117144233 2.718281828459045 0.36787944117144233 2.718281828459045 0.36787944117144233 2.718281828459045 0.36787944117144233 2.718281828459045 0.36787944117144233 2.718281828459045 0.36787944117144233 2.718281828459045 0.36787944117144233 2.718281828459045 0.36787944117144233 2.718281828459045 0.36787944117144233 2.718281828459045 0.36787944117144233 2.718281828459045 0.36787944117144233 2.718281828459045 0.36787944117144233 2.718281828459045 0.36787944117144233 1.0 1.0 2.718281828459045 0.36787944117144233 2.718281828459045 0.36787944117144233 2.718281828459045 0.36787944117144233 2.718281828459045 0.36787944117144233 2.718281828459045 0.36787944117144233 2.718281828459045 0.36787944117144233 2.718281828459045 0.36787944117144233 2.718281828459045 0.36787944117144233 2.718281828459045 0.36787944117144233 2.718281828459045 0.36787944117144233 2.718281828459045 0.36787944117144233 1.0 1.0 2.718281828459045 0.36787944117144233 2.718281828459045 0.36787944117144233 2.718281828459045 0.36787944117144233 2.718281828459045 0.36787944117144233 2.718281828459045 0.36787944117144233 2.718281828459045 0.36787944117144233 2.718281828459045 0.36787944117144233 2.718281828459045 0.36787944117144233 2.718281828459045 0.36787944117144233 1.0 1.0 2.718281828459045 0.36787944117144233 2.718281828459045 0.36787944117144233 2.718281828459045 0.36787944117144233 2.718281828459045 0.36787944117144233 1.0 1.0 2.718281828459045 0.36787944117144233 2.718281828459045 0.36787944117144233 2.718281828459045 0.36787944117144233 2.718281828459045 0.36787944117144233 2.718281828459045 0.36787944117144233 2.718281828459045 0.36787944117144233 2.718281828459045 0.36787944117144233 2.718281828459045 0.36787944117144233 2.718281828459045 0.36787944117144233 2.718281828459045 0.36787944117144233 2.718281828459045 0.36787944117144233 2.718281828459045 0.36787944117144233 2.718281828459045 0.36787944117144233 1.0 1.0 2.718281828459045 0.36787944117144233 2.718281828459045 0.36787944117144233 2.718281828459045 0.36787944117144233 2.718281828459045 0.36787944117144233 2.718281828459045 0.36787944117144233 2.718281828459045 0.36787944117144233 2.718281828459045 0.36787944117144233 2.718281828459045 0.36787944117144233 2.718281828459045 0.36787944117144233 2.718281828459045 0.36787944117144233 2.718281828459045 0.36787944117144233 2.718281828459045 0.36787944117144233 2.718281828459045 0.36787944117144233 2.718281828459045 0.36787944117144233 2.718281828459045 0.36787944117144233 1.0 1.0 2.718281828459045 0.36787944117144233 2.718281828459045 0.36787944117144233 2.718281828459045 0.36787944117144233 2.718281828459045 0.36787944117144233 2.718281828459045 0.36787944117144233 2.718281828459045 0.36787944117144233 2.718281828459045 0.36787944117144233 2.718281828459045 0.36787944117144233 2.718281828459045 0.36787944117144233 2.718281828459045 0.36787944117144233 2.718281828459045 0.36787944117144233 1.0 1.0 2.718281828459045 0.36787944117144233 2.718281828459045 0.36787944117144233 2.718281828459045 0.36787944117144233 2.718281828459045 0.36787944117144233 2.718281828459045 0.36787944117144233 2.718281828459045 0.36787944117144233 2.718281828459045 0.36787944117144233 1.0 1.0 2.718281828459045 0.36787944117144233 2.718281828459045 0.36787944117144233 2.718281828459045 0.36787944117144233 2.718281828459045 0.36787944117144233 2.718281828459045 0.36787944117144233 2.718281828459045 0.36787944117144233 2.718281828459045 0.36787944117144233 2.718281828459045 0.36787944117144233 2.718281828459045 0.36787944117144233 2.718281828459045 0.36787944117144233 1.0 1.0 2.718281828459045 0.36787944117144233 2.718281828459045 0.36787944117144233 2.718281828459045 0.36787944117144233 2.718281828459045 0.36787944117144233 2.718281828459045 0.36787944117144233 2.718281828459045 0.36787944117144233 2.718281828459045 0.36787944117144233 1.0 1.0 2.718281828459045 0.36787944117144233 2.718281828459045 0.36787944117144233 2.718281828459045 0.36787944117144233 2.718281828459045 0.36787944117144233 1.0 1.0 2.718281828459045 0.36787944117144233 2.718281828459045 0.36787944117144233 2.718281828459045 0.36787944117144233 2.718281828459045 0.36787944117144233 2.718281828459045 0.36787944117144233 2.718281828459045 0.36787944117144233 2.718281828459045 0.36787944117144233 2.718281828459045 0.36787944117144233 2.718281828459045 0.36787944117144233 2.718281828459045 0.36787944117144233 2.718281828459045 0.36787944117144233 1.0 1.0 2.718281828459045 0.36787944117144233 2.718281828459045 0.36787944117144233 2.718281828459045 0.36787944117144233 2.718281828459045 0.36787944117144233 2.718281828459045 0.36787944117144233 2.718281828459045 0.36787944117144233 1.0 1.0 2.718281828459045 0.36787944117144233 2.718281828459045 0.36787944117144233 2.718281828459045 0.36787944117144233 2.718281828459045 0.36787944117144233 2.718281828459045 0.36787944117144233 2.718281828459045 0.36787944117144233 2.718281828459045 0.36787944117144233 1.0 1.0 2.718281828459045 0.36787944117144233 2.718281828459045 0.36787944117144233 2.718281828459045 0.36787944117144233 2.718281828459045 0.36787944117144233 2.718281828459045 0.36787944117144233 2.718281828459045 0.36787944117144233 2.718281828459045 0.36787944117144233 2.718281828459045 0.36787944117144233 2.718281828459045 0.36787944117144233 1.0 1.0 2.718281828459045 0.36787944117144233 2.718281828459045 0.36787944117144233 2.718281828459045 0.36787944117144233 2.718281828459045 0.36787944117144233 2.718281828459045 0.36787944117144233 2.718281828459045 0.36787944117144233 2.718281828459045 0.36787944117144233 2.718281828459045 0.36787944117144233 2.718281828459045 0.36787944117144233 2.718281828459045 0.36787944117144233 1.0 1.0 2.718281828459045 0.36787944117144233 2.718281828459045 0.36787944117144233 2.718281828459045 0.36787944117144233 2.718281828459045 0.36787944117144233 2.718281828459045 0.36787944117144233 2.718281828459045 0.36787944117144233 2.718281828459045 0.36787944117144233 2.718281828459045 0.36787944117144233 1.0 1.0 2.718281828459045 0.36787944117144233 2.718281828459045 0.36787944117144233 2.718281828459045 0.36787944117144233 2.718281828459045 0.36787944117144233 2.718281828459045 0.36787944117144233 2.718281828459045 0.36787944117144233 1.0 1.0 2.718281828459045 0.36787944117144233 2.718281828459045 0.36787944117144233 2.718281828459045 0.36787944117144233 2.718281828459045 0.36787944117144233 1.0 1.0 2.718281828459045 0.36787944117144233 2.718281828459045 0.36787944117144233 2.718281828459045 0.36787944117144233 2.718281828459045 0.36787944117144233 2.718281828459045 0.36787944117144233 2.718281828459045 0.36787944117144233 1.0 1.0 2.718281828459045 0.36787944117144233 2.718281828459045 0.36787944117144233 2.718281828459045 0.36787944117144233 2.718281828459045 0.36787944117144233 1.0 1.0 2.718281828459045 0.36787944117144233 2.718281828459045 0.36787944117144233 2.718281828459045 0.36787944117144233 2.718281828459045 0.36787944117144233 2.718281828459045 0.36787944117144233 2.718281828459045 0.36787944117144233 1.0 1.0 2.718281828459045 0.36787944117144233 2.718281828459045 0.36787944117144233 2.718281828459045 0.36787944117144233 2.718281828459045 0.36787944117144233 1.0 1.0 2.718281828459045 0.36787944117144233 2.718281828459045 0.36787944117144233 2.718281828459045 0.36787944117144233 2.718281828459045 0.36787944117144233 2.718281828459045 0.36787944117144233 2.718281828459045 0.36787944117144233 2.718281828459045 0.36787944117144233 1.0 1.0 2.718281828459045 0.36787944117144233 2.718281828459045 0.36787944117144233 2.718281828459045 0.36787944117144233 1.0 1.0 2.718281828459045 0.36787944117144233 2.718281828459045 0.36787944117144233 2.718281828459045 0.36787944117144233 1.0 1.0 2.718281828459045 0.36787944117144233 2.718281828459045 0.36787944117144233 1.0 1.0 2.718281828459045 0.36787944117144233 2.718281828459045 0.36787944117144233 2.718281828459045 0.36787944117144233 2.718281828459045 0.36787944117144233 2.718281828459045 0.36787944117144233 2.718281828459045 0.36787944117144233 1.0 1.0 2.718281828459045 0.36787944117144233 2.718281828459045 0.36787944117144233 2.718281828459045 0.36787944117144233 2.718281828459045 0.36787944117144233 2.718281828459045 0.36787944117144233 2.718281828459045 0.36787944117144233 2.718281828459045 0.36787944117144233 2.718281828459045 0.36787944117144233 2.718281828459045 0.36787944117144233 2.718281828459045 0.36787944117144233 1.0 1.0 2.718281828459045 0.36787944117144233 2.718281828459045 0.36787944117144233 2.718281828459045 0.36787944117144233 2.718281828459045 0.36787944117144233 1.0 1.0 2.718281828459045 0.36787944117144233 2.718281828459045 0.36787944117144233 1.0 1.0 2.718281828459045 0.36787944117144233 2.718281828459045 0.36787944117144233 2.718281828459045 0.36787944117144233 2.718281828459045 0.36787944117144233 1.0 1.0 2.718281828459045 0.36787944117144233 1.0 1.0 2.718281828459045 0.36787944117144233 2.718281828459045 0.36787944117144233 1.0 1.0 2.718281828459045 0.36787944117144233 2.718281828459045 0.36787944117144233 1.0 1.0 2.718281828459045 0.36787944117144233 2.718281828459045 0.36787944117144233 1.0 1.0 2.718281828459045 0.36787944117144233 2.718281828459045 0.36787944117144233 1.0 1.0 2.718281828459045 0.36787944117144233 2.718281828459045 0.36787944117144233 1.0 1.0 2.718281828459045 0.36787944117144233 1.0 1.0 2.718281828459045 0.36787944117144233 2.718281828459045 0.36787944117144233 1.0 1.0 2.718281828459045 0.36787944117144233 1.0 1.0 2.718281828459045 0.36787944117144233 2.718281828459045 0.36787944117144233 1.0 1.0 2.718281828459045 0.36787944117144233 2.718281828459045 0.36787944117144233 1.0 1.0 2.718281828459045 0.36787944117144233 1.0 1.0 2.718281828459045 0.36787944117144233 1.0 1.0 1.0 1.0
2 1 15 0
2 -1 -15 0
-2 1 -15 0
-2 -1 15 0
3 1 38 0
3 -1 -38 0
-3 1 -38 0
-3 -1 38 0
4 1 79 0
4 -1 -79 0
-4 1 -79 0
-4 -1 79 0
5 1 121 0
5 -1 -121 0
-5 1 -121 0
-5 -1 121 0
6 1 172 0
6 -1 -172 0
-6 1 -172 0
-6 -1 172 0
7 1 201 0
7 -1 -201 0
-7 1 -201 0
-7 -1 201 0
8 1 210 0
8 -1 -210 0
-8 1 -210 0
-8 -1 210 0
9 1 229 0
9 -1 -229 0
-9 1 -229 0
-9 -1 229 0
10 1 272 0
10 -1 -272 0
-10 1 -272 0
-10 -1 272 0
11 1 283 0
11 -1 -283 0
-11 1 -283 0
-11 -1 283 0
12 1 296 0
12 -1 -296 0
-12 1 -296 0
-12 -1 296 0
13 1 323 0
13 -1 -323 0
-13 1 -323 0
-13 -1 323 0
14 1 326 0
14 -1 -326 0
-14 1 -326 0
-14 -1 326 0
16 15 64 0
16 -15 -64 0
-16 15 -64 0
-16 -15 64 0
17 15 165 0
17 -15 -165 0
-17 15 -165 0
-17 -15 165 0
18 15 210 0
18 -15 -210 0
-18 15 -210 0
-18 -15 210 0
19 15 222 0
19 -15 -222 0
-19 15 -222 0
-19 -15 222 0
20 15 304 0
20 -15 -304 0
-20 15 -304 0
-20 -15 304 0
21 15 307 0
21 -15 -307 0
-21 15 -307 0
-21 -15 307 0
22 15 318 0
22 -15 -318 0
-22 15 -318 0
-22 -15 318 0
23 15 323 0
23 -15 -323 0
-23 15 -323 0
-23 -15 323 0
25 24 38 0
25 -24 -38 0
-25 24 -38 0
-25 -24 38 0
26 24 52 0
26 -24 -52 0
-26 24 -52 0
-26 -24 52 0
27 24 93 0
27 -24 -93 0
-27 24 -93 0
-27 -24 93 0
28 24 121 0
28 -24 -121 0
-28 24 -121 0
-28 -24 121 0
29 24 129 0
29 -24 -129 0
-29 24 -129 0
-29 -24 129 0
30 24 201 0
30 -24 -201 0
-30 24 -201 0
-30 -24 201 0
31 24 229 0
31 -24 -229 0
-31 24 -229 0
-31 -24 229 0
32 24 234 0
32 -24 -234 0
-32 24 -234 0
-32 -24 234 0
33 24 258 0
33 -24 -258 0
-33 24 -258 0
-33 -24 258 0
34 24 288 0
34 -24 -288 0
-34 24 -288 0
-34 -24 288 0
35 24 304 0
35 -24 -304 0
-35 24 -304 0
-35 -24 304 0
36 24 326 0
36 -24 -326 0
-36 24 -326 0
-36 -24 326 0
37 24 330 0
37 -24 -330 0
-37 24 -330 0
-37 -24 330 0
39 38 52 0
39 -38 -52 0
-39 38 -52 0
-39 -38 52 0
40 38 93 0
40 -38 -93 0
-40 38 -93 0
-40 -38 93 0
41 38 109 0
41 -38 -109 0
-41 38 -109 0
-41 -38 109 0
42 38 121 0
42 -38 -121 0
-42 38 -121 0
-42 -38 121 0
43 38 172 0
43 -38 -172 0
-43 38 -172 0
-43 -38 172 0
44 38 201 0
44 -38 -201 0
-44 38 -201 0
-44 -38 201 0
45 38 210 0
45 -38 -210 0
-45 38 -210 0
-45 -38 210 0
46 38 283 0
46 -38 -283 0
-46 38 -283 0
-46 -38 283 0
47 38 288 0
47 -38 -288 0
-47 38 -288 0
-47 -38 288 0
48 38 291 0
48 -38 -291 0
-48 38 -291 0
-48 -38 291 0
49 38 304 0
49 -38 -304 0
-49 38 -304 0
-49 -38 304 0
50 38 320 0
50 -38 -320 0
-50 38 -320 0
-50 -38 320 0
51 38 323 0
51 -38 -323 0
-51 38 -323 0
-51 -38 323 0
53 52 64 0
53 -52 -64 0
-53 52 -64 0
-53 -52 64 0
54 52 74 0
54 -52 -74 0
-54 52 -74 0
-54 -52 74 0
55 52 79 0
55 -52 -79 0
-55 52 -79 0
-55 -52 79 0
56 52 109 0
56 -52 -109 0
-56 52 -109 0
-56 -52 109 0
57 52 210 0
57 -52 -210 0
-57 52 -210 0
-57 -52 210 0
58 52 222 0
58 -52 -222 0
-58 52 -222 0
-58 -52 222 0
59 52 283 0
59 -52 -283 0
-59 52 -283 0
-59 -52 283 0
60 52 288 0
60 -52 -288 0
-60 52 -288 0
-60 -52 288 0
61 52 313 0
61 -52 -313 0
-61 52 -313 0
-61 -52 313 0
62 52 318 0
62 -52 -318 0
-62 52 -318 0
-62 -52 318 0
63 52 323 0
63 -52 -323 0
-63 52 -323 0
-63 -52 323 0
65 64 148 0
65 -64 -148 0
-65 64 -148 0
-65 -64 148 0
66 64 153 0
66 -64 -153 0
-66 64 -153 0
-66 -64 153 0
67 64 210 0
67 -64 -210 0
-67 64 -210 0
-67 -64 210 0
68 64 229 0
68 -64 -229 0
-68 64 -229 0
-68 -64 229 0
69 64 254 0
69 -64 -254 0
-69 64 -254 0
-69 -64 254 0
70 64 310 0
70 -64 -310 0
-70 64 -310 0
-70 -64 310 0
71 64 328 0
71 -64 -328 0
-71 64 -328 0
-71 -64 328 0
72 64 330 0
72 -64 -330 0
-72 64 -330 0
-72 -64 330 0
73 64 331 0
73 -64 -331 0
-73 64 -331 0
-73 -64 331 0
75 74 172 0
75 -74 -172 0
-75 74 -172 0
-75 -74 172 0
76 74 254 0
76 -74 -254 0
-76 74 -254 0
-76 -74 254 0
77 74 291 0
77 -74 -291 0
-77 74 -291 0
-77 -74 291 0
78 74 315 0
78 -74 -315 0
-78 74 -315 0
-78 -74 315 0
80 79 109 0
80 -79 -109 0
-80 79 -109 0
-80 -79 109 0
81 79 172 0
81 -79 -172 0
-81 79 -172 0
-81 -79 172 0
82 79 210 0
82 -79 -210 0
-82 79 -210 0
-82 -79 210 0
83 79 222 0
83 -79 -222 0
-83 79 -222 0
-83 -79 222 0
84 79 229 0
84 -79 -229 0
-84 79 -229 0
-84 -79 229 0
85 79 234 0
85 -79 -234 0
-85 79 -234 0
-85 -79 234 0
86 79 241 0
86 -79 -241 0
-86 79 -241 0
-86 -79 241 0
87 79 262 0
87 -79 -262 0
-87 79 -262 0
-87 -79 262 0
88 79 315 0
88 -79 -315 0
-88 79 -315 0
-88 -79 315 0
89 79 320 0
89 -79 -320 0
-89 79 -320 0
-89 -79 320 0
90 79 323 0
90 -79 -323 0
-90 79 -323 0
-90 -79 323 0
91 79 326 0
91 -79 -326 0
-91 79 -326 0
-91 -79 326 0
92 79 330 0
92 -79 -330 0
-92 79 -330 0
-92 -79 330 0
94 93 109 0
94 -93 -109 0
-94 93 -109 0
-94 -93 109 0
95 93 121 0
95 -93 -121 0
-95 93 -121 0
-95 -93 121 0
96 93 129 0
96 -93 -129 0
-96 93 -129 0
-96 -93 129 0
97 93 140 0
97 -93 -140 0
-97 93 -140 0
-97 -93 140 0
98 93 165 0
98 -93 -165 0
-98 93 -165 0
-98 -93 165 0
99 93 201 0
99 -93 -201 0
-99 93 -201 0
-99 -93 201 0
100 93 210 0
100 -93 -210 0
-100 93 -210 0
-100 -93 210 0
101 93 229 0
101 -93 -229 0
-101 93 -229 0
-101 -93 229 0
102 93 246 0
102 -93 -246 0
-102 93 -246 0
-102 -93 246 0
103 93 258 0
103 -93 -258 0
-103 93 -258 0
-103 -93 258 0
104 93 272 0
104 -93 -272 0
-104 93 -272 0
-104 -93 272 0
105 93 298 0
105 -93 -298 0
-105 93 -298 0
-105 -93 298 0
106 93 301 0
106 -93 -301 0
-106 93 -301 0
-106 -93 301 0
107 93 326 0
107 -93 -326 0
-107 93 -326 0
-107 -93 326 0
108 93 328 0
108 -93 -328 0
-108 93 -328 0
-108 -93 328 0
110 109 121 0
110 -109 -121 0
-110 109 -121 0
-110 -109 121 0
111 109 180 0
111 -109 -180 0
-111 109 -180 0
-111 -109 180 0
112 109 234 0
112 -109 -234 0
-112 109 -234 0
-112 -109 234 0
113 109 262 0
113 -109 -262 0
-113 109 -262 0
-113 -109 262 0
114 109 272 0
114 -109 -272 0
-114 109 -272 0
-114 -109 272 0
115 109 301 0
115 -109 -301 0
-115 109 -301 0
-115 -109 301 0
116 109 304 0
116 -109 -304 0
-116 109 -304 0
-116 -109 304 0
117 109 313 0
117 -109 -313 0
-117 109 -313 0
-117 -109 313 0
118 109 318 0
118 -109 -318 0
-118 109 -318 0
-118 -109 318 0
119 109 326 0
119 -109 -326 0
-119 109 -326 0
-119 -109 326 0
120 109 328 0
120 -109 -328 0
-120 109 -328 0
-120 -109 328 0
122 121 129 0
122 -121 -129 0
-122 121 -129 0
-122 -121 129 0
123 121 172 0
123 -121 -172 0
-123 121 -172 0
-123 -121 172 0
124 121 180 0
124 -121 -180 0
-124 121 -180 0
-124 -121 180 0
125 121 210 0
125 -121 -210 0
-125 121 -210 0
-125 -121 210 0
126 121 229 0
126 -121 -229 0
-126 121 -229 0
-126 -121 229 0
127 121 296 0
127 -121 -296 0
-127 121 -296 0
-127 -121 296 0
128 121 307 0
128 -121 -307 0
-128 121 -307 0
-128 -121 307 0
130 129 140 0
130 -129 -140 0
-130 129 -140 0
-130 -129 140 0
131 129 201 0
131 -129 -201 0
-131 129 -201 0
-131 -129 201 0
132 129 222 0
132 -129 -222 0
-132 129 -222 0
-132 -129 222 0
133 129 258 0
133 -129 -258 0
-133 129 -258 0
-133 -129 258 0
134 129 283 0
134 -129 -283 0
-134 129 -283 0
-134 -129 283 0
135 129 291 0
135 -129 -291 0
-135 129 -291 0
-135 -129 291 0
136 129 313 0
136 -129 -313 0
-136 129 -313 0
-136 -129 313 0
137 129 315 0
137 -129 -315 0
-137 129 -315 0
-137 -129 315 0
138 129 318 0
138 -129 -318 0
-138 129 -318 0
-138 -129 318 0
139 129 330 0
139 -129 -330 0
-139 129 -330 0
-139 -129 330 0
141 140 229 0
141 -140 -229 0
-141 140 -229 0
-141 -140 229 0
142 140 254 0
142 -140 -254 0
-142 140 -254 0
-142 -140 254 0
143 140 262 0
143 -140 -262 0
-143 140 -262 0
-143 -140 262 0
144 140 301 0
144 -140 -301 0
-144 140 -301 0
-144 -140 301 0
145 140 315 0
145 -140 -315 0
-145 140 -315 0
-145 -140 315 0
146 140 326 0
146 -140 -326 0
-146 140 -326 0
-146 -140 326 0
147 140 328 0
147 -140 -328 0
-147 140 -328 0
-147 -140 328 0
149 148 254 0
149 -148 -254 0
-149 148 -254 0
-149 -148 254 0
150 148 298 0
150 -148 -298 0
-150 148 -298 0
-150 -148 298 0
151 148 301 0
151 -148 -301 0
-151 148 -301 0
-151 -148 301 0
152 148 304 0
152 -148 -304 0
-152 148 -304 0
-152 -148 304 0
154 153 180 0
154 -153 -180 0
-154 153 -180 0
-154 -153 180 0
155 153 190 0
155 -153 -190 0
-155 153 -190 0
-155 -153 190 0
156 153 201 0
156 -153 -201 0
-156 153 -201 0
-156 -153 201 0
157 153 210 0
157 -153 -210 0
-157 153 -210 0
-157 -153 210 0
158 153 229 0
158 -153 -229 0
-158 153 -229 0
-158 -153 229 0
159 153 246 0
159 -153 -246 0
-159 153 -246 0
-159 -153 246 0
160 153 254 0
160 -153 -254 0
-160 153 -254 0
-160 -153 254 0
161 153 283 0
161 -153 -283 0
-161 153 -283 0
-161 -153 283 0
162 153 288 0
162 -153 -288 0
-162 153 -288 0
-162 -153 288 0
163 153 307 0
163 -153 -307 0
-163 153 -307 0
-163 -153 307 0
164 153 328 0
164 -153 -328 0
-164 153 -328 0
-164 -153 328 0
166 165 229 0
166 -165 -229 0
-166 165 -229 0
-166 -165 229 0
167 165 283 0
167 -165 -283 0
-167 165 -283 0
-167 -165 283 0
168 165 296 0
168 -165 -296 0
-168 165 -296 0
-168 -165 296 0
169 165 323 0
169 -165 -323 0
-169 165 -323 0
-169 -165 323 0
170 165 328 0
170 -165 -328 0
-170 165 -328 0
-170 -165 328 0
171 165 330 0
171 -165 -330 0
-171 165 -330 0
-171 -165 330 0
173 172 180 0
173 -172 -180 0
-173 172 -180 0
-173 -172 180 0
174 172 217 0
174 -172 -217 0
-174 172 -217 0
-174 -172 217 0
175 172 222 0
175 -172 -222 0
-175 172 -222 0
-175 -172 222 0
176 172 254 0
176 -172 -254 0
-176 172 -254 0
-176 -172 254 0
177 172 301 0
177 -172 -301 0
-177 172 -301 0
-177 -172 301 0
178 172 313 0
178 -172 -313 0
-178 172 -313 0
-178 -172 313 0
179 172 328 0
179 -172 -328 0
-179 172 -328 0
-179 -172 328 0
181 180 217 0
181 -180 -217 0
-181 180 -217 0
-181 -180 217 0
182 180 246 0
182 -180 -246 0
-182 180 -246 0
-182 -180 246 0
183 180 291 0
183 -180 -291 0
-183 180 -291 0
-183 -180 291 0
184 180 304 0
184 -180 -304 0
-184 180 -304 0
-184 -180 304 0
185 180 307 0
185 -180 -307 0
-185 180 -307 0
-185 -180 307 0
186 180 315 0
186 -180 -315 0
-186 180 -315 0
-186 -180 315 0
187 180 318 0
187 -180 -318 0
-187 180 -318 0
-187 -180 318 0
188 180 328 0
188 -180 -328 0
-188 180 -328 0
-188 -180 328 0
189 180 331 0
189 -180 -331 0
-189 180 -331 0
-189 -180 331 0
191 190 210 0
191 -190 -210 0
-191 190 -210 0
-191 -190 210 0
192 190 217 0
192 -190 -217 0
-192 190 -217 0
-192 -190 217 0
193 190 246 0
193 -190 -246 0
-193 190 -246 0
-193 -190 246 0
194 190 258 0
194 -190 -258 0
-194 190 -258 0
-194 -190 258 0
195 190 283 0
195 -190 -283 0
-195 190 -283 0
-195 -190 283 0
196 190 291 0
196 -190 -291 0
-196 190 -291 0
-196 -190 291 0
197 190 298 0
197 -190 -298 0
-197 190 -298 0
-197 -190 298 0
198 190 301 0
198 -190 -301 0
-198 190 -301 0
-198 -190 301 0
199 190 323 0
199 -190 -323 0
-199 190 -323 0
-199 -190 323 0
200 190 330 0
200 -190 -330 0
-200 190 -330 0
-200 -190 330 0
202 201 217 0
202 -201 -217 0
-202 201 -217 0
-202 -201 217 0
203 201 246 0
203 -201 -246 0
-203 201 -246 0
-203 -201 246 0
204 201 265 0
204 -201 -265 0
-204 201 -265 0
-204 -201 265 0
205 201 272 0
205 -201 -272 0
-205 201 -272 0
-205 -201 272 0
206 201 298 0
206 -201 -298 0
-206 201 -298 0
-206 -201 298 0
207 201 318 0
207 -201 -318 0
-207 201 -318 0
-207 -201 318 0
208 201 326 0
208 -201 -326 0
-208 201 -326 0
-208 -201 326 0
209 201 328 0
209 -201 -328 0
-209 201 -328 0
-209 -201 328 0
211 210 217 0
211 -210 -217 0
-211 210 -217 0
-211 -210 217 0
212 210 262 0
212 -210 -262 0
-212 210 -262 0
-212 -210 262 0
213 210 318 0
213 -210 -318 0
-213 210 -318 0
-213 -210 318 0
214 210 323 0
214 -210 -323 0
-214 210 -323 0
-214 -210 323 0
215 210 326 0
215 -210 -326 0
-215 210 -326 0
-215 -210 326 0
216 210 328 0
216 -210 -328 0
-216 210 -328 0
-216 -210 328 0
218 217 222 0
218 -217 -222 0
-218 217 -222 0
-218 -217 222 0
219 217 246 0
219 -217 -246 0
-219 217 -246 0
-219 -217 246 0
220 217 296 0
220 -217 -296 0
-220 217 -296 0
-220 -217 296 0
221 217 301 0
221 -217 -301 0
-221 217 -301 0
-221 -217 301 0
223 222 265 0
223 -222 -265 0
-223 222 -265 0
-223 -222 265 0
224 222 272 0
224 -222 -272 0
-224 222 -272 0
-224 -222 272 0
225 222 283 0
225 -222 -283 0
-225 222 -283 0
-225 -222 283 0
226 222 288 0
226 -222 -288 0
-226 222 -288 0
-226 -222 288 0
227 222 291 0
227 -222 -291 0
-227 222 -291 0
-227 -222 291 0
228 222 296 0
228 -222 -296 0
-228 222 -296 0
-228 -222 296 0
230 229 296 0
230 -229 -296 0
-230 229 -296 0
-230 -229 296 0
231 229 320 0
231 -229 -320 0
-231 229 -320 0
-231 -229 320 0
232 229 323 0
232 -229 -323 0
-232 229 -323 0
-232 -229 323 0
233 229 330 0
233 -229 -330 0
-233 229 -330 0
-233 -229 330 0
235 234 262 0
235 -234 -262 0
-235 234 -262 0
-235 -234 262 0
236 234 283 0
236 -234 -283 0
-236 234 -283 0
-236 -234 283 0
237 234 288 0
237 -234 -288 0
-237 234 -288 0
-237 -234 288 0
238 234 304 0
238 -234 -304 0
-238 234 -304 0
-238 -234 304 0
239 234 307 0
239 -234 -307 0
-239 234 -307 0
-239 -234 307 0
240 234 330 0
240 -234 -330 0
-240 234 -330 0
-240 -234 330 0
242 241 272 0
242 -241 -272 0
-242 241 -272 0
-242 -241 272 0
243 241 291 0
243 -241 -291 0
-243 241 -291 0
-243 -241 291 0
244 241 328 0
244 -241 -328 0
-244 241 -328 0
-244 -241 328 0
245 241 330 0
245 -241 -330 0
-245 241 -330 0
-245 -241 330 0
247 246 254 0
247 -246 -254 0
-247 246 -254 0
-247 -246 254 0
248 246 283 0
248 -246 -283 0
-248 246 -283 0
-248 -246 283 0
249 246 298 0
249 -246 -298 0
-249 246 -298 0
-249 -246 298 0
250 246 304 0
250 -246 -304 0
-250 246 -304 0
-250 -246 304 0
251 246 310 0
251 -246 -310 0
-251 246 -310 0
-251 -246 310 0
252 246 318 0
252 -246 -318 0
-252 246 -318 0
-252 -246 318 0
253 246 323 0
253 -246 -323 0
-253 246 -323 0
-253 -246 323 0
255 254 272 0
255 -254 -272 0
-255 254 -272 0
-255 -254 272 0
256 254 296 0
256 -254 -296 0
-256 254 -296 0
-256 -254 296 0
257 254 323 0
257 -254 -323 0
-257 254 -323 0
-257 -254 323 0
259 258 272 0
259 -258 -272 0
-259 258 -272 0
-259 -258 272 0
260 258 296 0
260 -258 -296 0
-260 258 -296 0
-260 -258 296 0
261 258 320 0
261 -258 -320 0
-261 258 -320 0
-261 -258 320 0
263 262 310 0
263 -262 -310 0
-263 262 -310 0
-263 -262 310 0
264 262 313 0
264 -262 -313 0
-264 262 -313 0
-264 -262 313 0
266 265 272 0
266 -265 -272 0
-266 265 -272 0
-266 -265 272 0
267 265 291 0
267 -265 -291 0
-267 265 -291 0
-267 -265 291 0
268 265 296 0
268 -265 -296 0
-268 265 -296 0
-268 -265 296 0
269 265 301 0
269 -265 -301 0
-269 265 -301 0
-269 -265 301 0
270 265 315 0
270 -265 -315 0
-270 265 -315 0
-270 -265 315 0
271 265 330 0
271 -265 -330 0
-271 265 -330 0
-271 -265 330 0
273 272 283 0
273 -272 -283 0
-273 272 -283 0
-273 -272 283 0
274 272 288 0
274 -272 -288 0
-274 272 -288 0
-274 -272 288 0
275 272 298 0
275 -272 -298 0
-275 272 -298 0
-275 -272 298 0
276 272 301 0
276 -272 -301 0
-276 272 -301 0
-276 -272 301 0
277 272 310 0
277 -272 -310 0
-277 272 -310 0
-277 -272 310 0
278 272 315 0
278 -272 -315 0
-278 272 -315 0
-278 -272 315 0
279 272 318 0
279 -272 -318 0
-279 272 -318 0
-279 -272 318 0
280 272 323 0
280 -272 -323 0
-280 272 -323 0
-280 -272 323 0
281 272 326 0
281 -272 -326 0
-281 272 -326 0
-281 -272 326 0
282 272 328 0
282 -272 -328 0
-282 272 -328 0
-282 -272 328 0
284 283 291 0
284 -283 -291 0
-284 283 -291 0
-284 -283 291 0
285 283 296 0
285 -283 -296 0
-285 283 -296 0
-285 -283 296 0
286 283 304 0
286 -283 -304 0
-286 283 -304 0
-286 -283 304 0
287 283 318 0
287 -283 -318 0
-287 283 -318 0
-287 -283 318 0
289 288 296 0
289 -288 -296 0
-289 288 -296 0
-289 -288 296 0
290 288 320 0
290 -288 -320 0
-290 288 -320 0
-290 -288 320 0
292 291 304 0
292 -291 -304 0
-292 291 -304 0
-292 -291 304 0
293 291 307 0
293 -291 -307 0
-293 291 -307 0
-293 -291 307 0
294 291 315 0
294 -291 -315 0
-294 291 -315 0
-294 -291 315 0
295 291 318 0
295 -291 -318 0
-295 291 -318 0
-295 -291 318 0
297 296 310 0
297 -296 -310 0
-297 296 -310 0
-297 -296 310 0
299 298 310 0
299 -298 -310 0
-299 298 -310 0
-299 -298 310 0
300 298 318 0
300 -298 -318 0
-300 298 -318 0
-300 -298 318 0
302 301 318 0
302 -301 -318 0
-302 301 -318 0
-302 -301 318 0
303 301 320 0
303 -301 -320 0
-303 301 -320 0
-303 -301 320 0
305 304 323 0
305 -304 -323 0
-305 304 -323 0
-305 -304 323 0
306 304 326 0
306 -304 -326 0
-306 304 -326 0
-306 -304 326 0
308 307 318 0
308 -307 -318 0
-308 307 -318 0
-308 -307 318 0
309 307 326 0
309 -307 -326 0
-309 307 -326 0
-309 -307 326 0
311 310 313 0
311 -310 -313 0
-311 310 -313 0
-311 -310 313 0
312 310 320 0
312 -310 -320 0
-312 310 -320 0
-312 -310 320 0
314 313 320 0
314 -313 -320 0
-314 313 -320 0
-314 -313 320 0
316 315 326 0
316 -315 -326 0
-316 315 -326 0
-316 -315 326 0
317 315 330 0
317 -315 -330 0
-317 315 -330 0
-317 -315 330 0
319 318 320 0
319 -318 -320 0
-319 318 -320 0
-319 -318 320 0
321 320 323 0
321 -320 -323 0
-321 320 -323 0
-321 -320 323 0
322 320 328 0
322 -320 -328 0
-322 320 -328 0
-322 -320 328 0
324 323 328 0
324 -323 -328 0
-324 323 -328 0
-324 -323 328 0
325 323 330 0
325 -323 -330 0
-325 323 -330 0
-325 -323 330 0
327 326 330 0
327 -326 -330 0
-327 326 -330 0
-327 -326 330 0
329 328 330 0
329 -328 -330 0
-329 328 -330 0
-329 -328 330 0
